100
128
6
25
2
64
2
10
13
6
39
10
16
5
15
37
24
16
25
18
18
10
14
41
28
18
7
15
13
24
6
34
64
6
2
24
29
18
20
2
35
17
1
8
11
9
64
14
19
41
10
11
10
42
2
15
14
13
44
41
48
33
47
47
19
22
62
18
53
39
63
56
47
39
58
34
64
63
42
39
36
64
44
35
36
64
62
5
59
14
55
15
55
39
33
48
22
58
40
46
42
9